Route #1: 105 19 188 57 172 185 18 61 180 32 153 84 98 141 70 126 62 100 8 56 130 48 174 151 54 181 166
Route #2: 66 171 162 33 107 161 132 74 111 23 164 158 55 179 10 73 34 95 128 163 4 110 168 120 13
Route #3: 64 7 154 189 20 53 27 187 15 124 140 82 122 60 116 17 155 79 11 175 102
Route #4: 106 16 170 119 49 26 117 134 65 114 9 113 91 59 96 3 90 42 69 178 165 88 139 1 149 160
Route #5: 14 156 108 67 51 93 135 75 121 50 94 21 35 109 81 144 115 145 92 46 103 129 72 133 44 127
Route #6: 157 173 176 167 177 148 123 71 52 101 47 5 137 125 86 12 77 22 36 2 38 6 89 104 142
Route #7: 182 169 80 28 58 159 85 138 68 39 30 150 24 147 78 97 143 25 112 43 83 29
Route #8: 37 131 118 31 99 45 184 136 183 186 146 87 152 41 76 40 63
Cost 18148
